p edge 25 31
e 1 8
e 1 13
e 1 16
e 2 9
e 2 13
e 2 18
e 2 21
e 2 25
e 4 11
e 4 17
e 4 23
e 5 11
e 5 19
e 7 13
e 8 19
e 9 16
e 9 18
e 9 25
e 11 18
e 11 25
e 12 22
e 13 24
e 15 18
e 16 18
e 16 20
e 16 23
e 17 21
e 17 22
e 18 21
e 19 25
e 20 22
